GLPSOL: GLPK LP/MIP Solver, v4.55
Parameter(s) specified in the command line:
 -m tmp.mod
Reading model section from tmp.mod...
Reading data section from tmp.mod...
2018 lines were read
Generating obj...
Generating kirhoff...
Generating init_charge...
Generating batt_size...
Model has been successfully generated
GLPK Simplex Optimizer, v4.55
1461 rows, 3445 columns, 6700 non-zeros
Preprocessing...
1351 rows, 3220 columns, 6425 non-zeros
Scaling...
 A: min|aij| =  1.000e+00  max|aij| =  1.000e+00  ratio =  1.000e+00
Problem data seem to be well scaled
Constructing initial basis...
Size of triangular part is 1144
      0: obj =   0.000000000e+00  infeas =  1.138e+03 (207)
    500: obj =   1.900000000e+01  infeas =  1.400e+01 (84)
*   517: obj =   2.100000000e+01  infeas =  0.000e+00 (81)
*   558: obj =   0.000000000e+00  infeas =  0.000e+00 (80)
OPTIMAL LP SOLUTION FOUND
Time used:   0.1 secs
Memory used: 6.4 Mb (6726861 bytes)
#OUTPUT:
0
-12 -5 -19 2 -1 -15 0 0 -4 0 -7 0 0 -1 -3 0 0 0 -2 0 0 -2 0 -4 -20 0 -1 0 4 0 0 -2 -19 -1 -7 -7 0 0 0 0 0 0 0 -7 -20 -4 0 -18 0 0 0 -17 0 6 -1 0 0 -7 0 0 0 0 0 0 0 0 -20 0 0 0 -2 0 0 0 0 0 0 -1 0 0 0 0 0 0 0 0 0 12 8 0 6 0 4 0 0 18 -6 1 -4 -7 0 0 0 0 0 0 -1 0 0 1 0 0 
0 0 0 0 0 0 0 0 0 0 0 0 0 0 0 0 0 0 0 0 0 0 0 0 -13 0 0 0 0 0 0 0 0 0 0 0 0 0 0 0 0 0 0 0 0 0 0 0 0 0 0 0 0 0 0 0 0 0 0 0 0 0 0 0 0 0 0 0 0 0 0 0 0 0 0 0 0 0 0 0 0 0 0 0 0 0 0 13 0 0 0 0 0 0 0 0 0 0 0 0 0 0 0 0 0 0 0 0 0 0 0 0 
0 0 0 0 0 0 0 0 -3 0 0 0 0 0 3 0 0 0 0 0 0 0 0 0 0 0 0 0 0 0 0 0 0 0 0 0 0 0 0 0 0 0 0 0 0 0 0 0 0 0 0 0 0 0 0 0 0 0 0 0 0 0 0 0 0 0 0 0 0 0 0 0 0 0 0 0 0 0 0 0 0 0 0 0 0 0 0 0 0 0 0 0 0 0 0 0 0 0 -3 3 0 0 0 0 0 0 0 0 0 0 0 0 
0 0 0 0 0 0 0 0 0 0 0 0 0 0 0 0 0 0 0 0 0 0 0 0 0 0 0 0 0 0 0 0 0 0 0 0 0 0 0 0 0 0 0 0 0 0 0 0 0 0 0 0 0 0 0 0 0 0 0 0 0 0 0 0 0 0 0 0 0 0 0 0 0 0 0 0 0 0 0 0 0 0 0 0 0 0 0 0 0 0 0 0 0 0 0 0 0 0 0 0 0 0 0 0 0 0 0 0 0 0 0 0 
0 0 1 0 0 0 0 -8 0 0 0 0 0 0 0 0 0 0 0 0 0 0 0 -1 0 0 0 0 0 0 0 0 0 0 0 0 0 0 0 0 0 0 0 0 0 -1 0 0 0 0 0 1 0 1 0 0 0 0 0 0 0 0 0 0 0 0 0 0 0 0 0 0 0 0 0 0 0 0 0 0 0 0 0 0 0 0 0 0 0 0 1 0 0 0 0 -1 -19 0 0 0 0 0 0 0 0 0 0 0 0 0 0 0 
-14 4 -14 -2 0 0 0 0 0 0 0 -2 -12 0 0 0 0 0 0 0 0 0 -18 0 -6 0 0 0 0 0 0 0 0 0 0 0 0 0 -5 -14 0 0 0 0 0 14 0 0 -2 -1 0 -14 0 6 0 0 0 0 0 0 0 0 1 0 0 0 0 -1 0 0 0 0 0 0 0 -13 0 0 0 0 0 0 0 0 0 0 0 6 0 0 11 0 0 0 -2 14 -6 0 0 0 0 0 -1 0 1 0 0 0 0 0 0 0 
0 0 -7 0 0 0 0 0 0 0 -3 0 0 0 0 0 0 0 0 0 0 0 0 -6 0 0 0 0 0 0 0 0 0 0 -3 0 0 -13 0 0 0 0 0 0 0 7 0 0 0 0 0 -7 0 6 0 0 0 0 0 0 0 0 0 0 0 0 0 0 0 0 0 0 0 0 0 0 0 0 0 0 0 0 -13 0 0 -13 0 0 0 0 6 0 0 0 0 7 -6 0 0 0 0 0 0 0 0 0 0 0 0 0 0 0 
0 0 0 0 0 0 0 0 0 -11 0 0 0 0 0 0 0 0 0 0 0 0 0 0 -11 0 0 0 0 0 0 0 0 0 0 0 0 0 0 0 0 0 0 0 0 0 0 0 0 0 0 0 0 0 0 0 0 0 0 0 0 0 0 0 0 0 0 0 0 0 0 0 0 0 0 0 0 0 0 0 0 0 0 0 0 0 0 11 0 0 0 0 0 0 0 0 0 0 0 0 0 0 0 0 0 0 0 0 0 0 0 0 
7 2 -10 2 0 0 0 0 2 0 0 0 0 0 0 3 0 0 0 0 0 0 5 8 -14 0 0 0 2 -3 0 0 0 0 0 0 0 0 5 0 0 0 0 0 0 8 0 0 0 0 0 -13 0 0 0 0 0 0 0 1 0 0 0 0 0 0 0 -1 0 0 0 0 0 0 0 0 0 0 0 0 0 0 0 0 0 0 0 0 14 3 -5 0 5 0 0 13 0 0 2 -2 0 0 0 0 0 1 0 0 0 0 0 0 
-9 0 0 0 0 0 0 0 0 0 0 0 0 0 0 0 0 0 0 0 0 0 -9 0 0 0 0 0 0 0 0 0 0 0 0 0 0 0 0 0 0 0 0 0 0 0 0 0 0 0 0 0 0 0 0 0 0 0 0 0 0 0 0 0 0 0 0 0 0 0 0 0 0 0 0 -9 0 0 0 0 0 0 0 0 0 0 0 0 0 0 0 0 0 0 0 0 0 0 0 0 0 0 0 0 0 0 0 0 0 0 0 0 
0 0 0 2 -2 0 0 0 0 -3 -19 0 0 -1 0 0 0 -3 0 -2 0 0 0 0 -19 0 0 0 0 0 0 0 -17 0 0 0 0 0 0 0 -2 0 2 0 -18 0 0 0 0 0 0 0 2 2 0 -18 0 0 0 0 0 0 0 0 0 0 0 0 0 0 0 2 0 0 0 0 0 -1 0 0 0 0 0 0 0 0 0 18 1 0 2 -2 0 0 0 0 -2 0 0 0 0 0 0 0 0 0 0 -18 0 1 0 0 
0 0 -19 0 0 -1 0 0 0 0 0 -2 0 0 0 0 0 0 0 0 0 0 0 -6 0 0 0 0 0 0 0 0 0 0 0 0 -1 0 0 0 0 0 0 0 0 -6 0 0 -2 -2 0 -4 0 6 0 0 0 0 0 0 0 0 1 0 0 0 0 0 0 0 0 0 0 0 0 0 0 0 0 0 0 0 0 0 0 0 0 0 0 0 6 0 10 0 -2 4 -6 0 0 0 0 0 -1 0 0 0 0 0 0 0 0 0 
0 0 -16 0 0 0 0 0 0 0 0 0 0 0 0 0 0 0 0 0 0 0 0 0 0 0 0 0 0 0 0 0 0 0 0 0 0 0 0 0 0 0 0 0 0 0 0 0 0 0 0 0 0 0 0 0 0 0 0 0 0 0 0 0 0 0 0 0 0 0 0 0 0 0 0 0 0 0 0 -16 0 0 0 0 0 0 0 0 0 0 0 0 0 0 0 0 0 0 0 0 0 0 0 0 0 0 0 0 0 0 0 0 
-11 0 -14 -2 0 -1 0 0 0 0 -9 -3 0 0 -1 -3 0 0 0 0 0 0 -11 -5 -7 0 0 -3 -1 -1 0 0 0 -1 0 0 0 -7 0 -4 0 -9 0 0 0 6 -4 0 0 0 0 -11 0 6 -1 0 0 0 -9 0 0 0 0 0 0 0 0 0 0 0 0 0 0 0 0 -11 0 0 0 0 -12 0 0 0 0 0 -4 6 1 -3 6 0 0 0 0 6 -6 1 0 0 9 0 0 0 0 0 0 0 0 0 -4 -4 
-6 0 -19 -2 -3 -1 0 0 0 -3 0 0 1 0 -3 -2 -2 -3 -9 -4 0 -9 -6 3 -9 0 -1 0 -3 0 0 -9 0 -1 0 0 0 0 -5 0 -5 0 -3 0 0 3 1 -9 0 0 0 -8 0 6 -1 0 0 0 0 -1 0 2 0 0 -1 0 0 0 0 0 -9 0 0 0 0 0 0 0 0 0 0 0 0 0 0 0 0 6 3 0 11 3 -3 -1 0 9 -6 1 0 0 0 -2 0 1 1 -1 -1 0 0 0 -1 1 
#OUTPUT END
Model has been successfully processed
